; benchmark generated from python API
(set-info :status unknown)
(declare-fun x_month () (_ BitVec 32))
(declare-fun x_year () (_ BitVec 32))
(declare-fun x_day () (_ BitVec 32))
(declare-fun y_month () (_ BitVec 32))
(declare-fun y_year () (_ BitVec 32))
(declare-fun y_day () (_ BitVec 32))
(assert
 (let (($x6082 (or (= (_ bv4 32) x_month) (= (_ bv6 32) x_month) (= (_ bv9 32) x_month) (= (_ bv11 32) x_month))))
 (let (($x3454 (and (= (_ bv0 32) (bvsmod x_year (_ bv4 32))) (and (distinct (_ bv0 32) (bvsmod x_year (_ bv100 32))) true))))
 (let ((?x582 (ite (= (_ bv2 32) x_month) (ite (or $x3454 (= (_ bv0 32) (bvsmod x_year (_ bv400 32)))) (_ bv29 32) (_ bv28 32)) (ite $x6082 (_ bv30 32) (_ bv31 32)))))
 (let (($x904 (bvsle x_day ?x582)))
 (let (($x7169 (bvsle (_ bv1 32) x_day)))
 (let (($x8161 (bvsle (_ bv1 32) x_month)))
 (let (($x1987 (bvsge (_ bv12 32) x_month)))
 (let (($x8150 (bvsle (_ bv1901 32) x_year)))
 (or (and (= (_ bv1900 32) x_year) (bvsle (_ bv3 32) x_month) $x1987 $x7169 $x904) (and $x8150 (bvsge (_ bv2099 32) x_year) $x8161 $x1987 $x7169 $x904) (and (= (_ bv2100 32) x_year) $x8161 (bvsge (_ bv2 32) x_month) $x7169 $x904)))))))))))
(assert
 (let (($x662 (= (_ bv4 32) y_month)))
 (let ((?x6805 (ite (or $x662 (= (_ bv6 32) y_month) (= (_ bv9 32) y_month) (= (_ bv11 32) y_month)) (_ bv30 32) (_ bv31 32))))
 (let (($x1560 (and (= (_ bv0 32) (bvsmod y_year (_ bv4 32))) (and (distinct (_ bv0 32) (bvsmod y_year (_ bv100 32))) true))))
 (let ((?x1330 (ite (= (_ bv2 32) y_month) (ite (or $x1560 (= (_ bv0 32) (bvsmod y_year (_ bv400 32)))) (_ bv29 32) (_ bv28 32)) ?x6805)))
 (let (($x2348 (bvsle y_day ?x1330)))
 (let (($x2057 (bvsle (_ bv1 32) y_day)))
 (let (($x1909 (bvsle (_ bv1 32) y_month)))
 (let (($x1174 (bvsge (_ bv12 32) y_month)))
 (let (($x2937 (bvsle (_ bv1901 32) y_year)))
 (or (and (= (_ bv1900 32) y_year) (bvsle (_ bv3 32) y_month) $x1174 $x2057 $x2348) (and $x2937 (bvsge (_ bv2099 32) y_year) $x1909 $x1174 $x2057 $x2348) (and (= (_ bv2100 32) y_year) $x1909 (bvsge (_ bv2 32) y_month) $x2057 $x2348))))))))))))
(assert
 (and (= (_ bv2023 32) x_year) (= (_ bv1 32) x_month) (= (_ bv31 32) x_day)))
(assert
 (let ((?x2761 (bvadd x_month (bvadd (bvmul (_ bv0 32) (_ bv12 32)) (_ bv3 32)))))
 (let ((?x5284 (bvsub (ite (bvuge ?x2761 (_ bv2147483648 32)) (bvsub ?x2761 (_ bv0 32)) ?x2761) (_ bv1 32))))
 (let ((?x3047 (bvsmod ?x5284 (_ bv12 32))))
 (let ((?x4706 (bvadd ?x3047 (_ bv1 32))))
 (let (($x515 (= (_ bv11 32) ?x4706)))
 (let (($x5437 (= (_ bv9 32) ?x4706)))
 (let (($x1901 (= (_ bv6 32) ?x4706)))
 (let (($x959 (= (_ bv4 32) ?x4706)))
 (let ((?x1955 (bvsdiv ?x5284 (_ bv12 32))))
 (let ((?x4592 (ite (and (bvuge ?x5284 (_ bv2147483648 32)) (and (distinct (_ bv0 32) ?x3047) true)) (bvsub ?x1955 (_ bv1 32)) ?x1955)))
 (let ((?x5238 (bvadd x_year ?x4592)))
 (let (($x507 (or (and (= (_ bv0 32) (bvsmod ?x5238 (_ bv4 32))) (and (distinct (_ bv0 32) (bvsmod ?x5238 (_ bv100 32))) true)) (= (_ bv0 32) (bvsmod ?x5238 (_ bv400 32))))))
 (let (($x8172 (= (_ bv2 32) ?x4706)))
 (let ((?x5071 (ite $x8172 (ite $x507 (_ bv29 32) (_ bv28 32)) (ite (or $x959 $x1901 $x5437 $x515) (_ bv30 32) (_ bv31 32)))))
 (let ((?x3844 (ite (bvsgt (_ bv1 32) x_day) (_ bv1 32) (ite (bvsgt x_day ?x5071) ?x5071 x_day))))
 (let ((?x5233 (ite (bvsgt (_ bv1 32) ?x3844) (_ bv1 32) (ite (bvsgt ?x3844 ?x5071) ?x5071 ?x3844))))
 (let ((?x6477 (ite $x8172 (ite $x507 (_ bv31 32) (_ bv31 32)) (ite (= (_ bv1 32) ?x4706) (ite $x507 (_ bv0 32) (_ bv0 32)) (_ bv0 32)))))
 (let ((?x1125 (ite $x959 (ite $x507 (_ bv91 32) (_ bv90 32)) (ite (= (_ bv3 32) ?x4706) (ite $x507 (_ bv60 32) (_ bv59 32)) ?x6477))))
 (let ((?x8016 (ite $x1901 (ite $x507 (_ bv152 32) (_ bv151 32)) (ite (= (_ bv5 32) ?x4706) (ite $x507 (_ bv121 32) (_ bv120 32)) ?x1125))))
 (let ((?x3266 (ite (= (_ bv8 32) ?x4706) (ite $x507 (_ bv213 32) (_ bv212 32)) (ite (= (_ bv7 32) ?x4706) (ite $x507 (_ bv182 32) (_ bv181 32)) ?x8016))))
 (let ((?x1968 (ite (= (_ bv10 32) ?x4706) (ite $x507 (_ bv274 32) (_ bv273 32)) (ite $x5437 (ite $x507 (_ bv244 32) (_ bv243 32)) ?x3266))))
 (let ((?x3785 (ite (= (_ bv12 32) ?x4706) (ite $x507 (_ bv335 32) (_ bv334 32)) (ite $x515 (ite $x507 (_ bv305 32) (_ bv304 32)) ?x1968))))
 (let ((?x1087 (bvadd (bvmul (_ bv365 32) (bvsub ?x5238 (_ bv1 32))) (bvsdiv (bvsub ?x5238 (_ bv1 32)) (_ bv4 32)))))
 (let ((?x2111 (bvadd (bvsub ?x1087 (bvsdiv (bvsub ?x5238 (_ bv1 32)) (_ bv100 32))) (bvsdiv (bvsub ?x5238 (_ bv1 32)) (_ bv400 32)))))
 (let ((?x3579 (bvadd (bvadd (bvsub (bvadd (bvadd ?x2111 ?x3785) (bvsub ?x5233 (_ bv1 32))) (_ bv730179 32)) (_ bv0 32)) (_ bv730179 32))))
 (let ((?x2054 (bvsmod ?x3579 (_ bv146097 32))))
 (let ((?x620 (bvsdiv ?x2054 (_ bv36524 32))))
 (let ((?x877 (ite (bvsle (_ bv4 32) ?x620) (_ bv3 32) ?x620)))
 (let ((?x2783 (bvsub ?x2054 (bvmul ?x877 (_ bv36524 32)))))
 (let ((?x2174 (bvsmod ?x2783 (_ bv1461 32))))
 (let ((?x555 (bvsdiv ?x2174 (_ bv365 32))))
 (let ((?x7046 (ite (bvsle (_ bv4 32) ?x555) (_ bv3 32) ?x555)))
 (let ((?x4922 (bvadd (bvadd (bvmul (bvsdiv ?x3579 (_ bv146097 32)) (_ bv400 32)) (bvmul ?x877 (_ bv100 32))) (bvmul (bvsdiv ?x2783 (_ bv1461 32)) (_ bv4 32)))))
 (let ((?x5726 (bvadd (bvadd ?x4922 ?x7046) (_ bv1 32))))
 (let (($x8219 (or (and (= (_ bv0 32) (bvsmod ?x5726 (_ bv4 32))) (and (distinct (_ bv0 32) (bvsmod ?x5726 (_ bv100 32))) true)) (= (_ bv0 32) (bvsmod ?x5726 (_ bv400 32))))))
 (let ((?x706 (bvsub ?x2174 (bvmul ?x7046 (_ bv365 32)))))
 (let ((?x5658 (ite $x8219 (_ bv31 32) (_ bv31 32))))
 (let (($x649 (bvsge ?x706 ?x5658)))
 (let ((?x978 (ite $x649 (bvadd (bvsub ?x706 ?x5658) (_ bv1 32)) (bvadd (bvsub ?x706 (ite $x8219 (_ bv0 32) (_ bv0 32))) (_ bv1 32)))))
 (let ((?x2856 (ite $x8219 (_ bv60 32) (_ bv59 32))))
 (let (($x3133 (bvsge ?x706 ?x2856)))
 (let ((?x6652 (ite $x8219 (_ bv91 32) (_ bv90 32))))
 (let (($x7553 (bvsge ?x706 ?x6652)))
 (let ((?x3236 (ite $x7553 (bvadd (bvsub ?x706 ?x6652) (_ bv1 32)) (ite $x3133 (bvadd (bvsub ?x706 ?x2856) (_ bv1 32)) ?x978))))
 (let ((?x654 (ite $x8219 (_ bv121 32) (_ bv120 32))))
 (let (($x939 (bvsge ?x706 ?x654)))
 (let ((?x3440 (ite $x8219 (_ bv152 32) (_ bv151 32))))
 (let (($x2810 (bvsge ?x706 ?x3440)))
 (let ((?x4352 (ite $x2810 (bvadd (bvsub ?x706 ?x3440) (_ bv1 32)) (ite $x939 (bvadd (bvsub ?x706 ?x654) (_ bv1 32)) ?x3236))))
 (let ((?x4739 (ite $x8219 (_ bv182 32) (_ bv181 32))))
 (let (($x5252 (bvsge ?x706 ?x4739)))
 (let ((?x672 (ite $x8219 (_ bv213 32) (_ bv212 32))))
 (let (($x5556 (bvsge ?x706 ?x672)))
 (let ((?x4147 (ite $x5556 (bvadd (bvsub ?x706 ?x672) (_ bv1 32)) (ite $x5252 (bvadd (bvsub ?x706 ?x4739) (_ bv1 32)) ?x4352))))
 (let ((?x4269 (ite $x8219 (_ bv244 32) (_ bv243 32))))
 (let (($x4286 (bvsge ?x706 ?x4269)))
 (let ((?x5591 (ite $x8219 (_ bv274 32) (_ bv273 32))))
 (let (($x424 (bvsge ?x706 ?x5591)))
 (let ((?x3656 (ite $x424 (bvadd (bvsub ?x706 ?x5591) (_ bv1 32)) (ite $x4286 (bvadd (bvsub ?x706 ?x4269) (_ bv1 32)) ?x4147))))
 (let ((?x886 (ite $x8219 (_ bv305 32) (_ bv304 32))))
 (let (($x1147 (bvsge ?x706 ?x886)))
 (let ((?x2091 (ite $x8219 (_ bv335 32) (_ bv334 32))))
 (let (($x469 (bvsge ?x706 ?x2091)))
 (let ((?x505 (ite $x469 (bvadd (bvsub ?x706 ?x2091) (_ bv1 32)) (ite $x1147 (bvadd (bvsub ?x706 ?x886) (_ bv1 32)) ?x3656))))
 (let (($x992 (= (_ bv0 32) (_ bv0 32))))
 (let ((?x2196 (ite $x2810 (_ bv6 32) (ite $x939 (_ bv5 32) (ite $x7553 (_ bv4 32) (ite $x3133 (_ bv3 32) (ite $x649 (_ bv2 32) (_ bv1 32))))))))
 (let ((?x2647 (ite $x1147 (_ bv11 32) (ite $x424 (_ bv10 32) (ite $x4286 (_ bv9 32) (ite $x5556 (_ bv8 32) (ite $x5252 (_ bv7 32) ?x2196)))))))
 (and (= y_year (ite $x992 ?x5238 ?x5726)) (= y_month (ite $x992 ?x4706 (ite $x469 (_ bv12 32) ?x2647))) (= y_day (ite $x992 ?x5233 ?x505)))))))))))))))))))))))))))))))))))))))))))))))))))))))))))))))))))))))
(assert
 (let (($x662 (= (_ bv4 32) y_month)))
(and (= (_ bv2023 32) y_year) $x662 (= (_ bv30 32) y_day))))
(check-sat)
